Translating instance to solver...

Set parameter TimeLimit to value 28800
Gurobi Optimizer version 11.0.2 build v11.0.2rc0 (linux64 - "Ubuntu 22.04.4 LTS")

CPU model: Intel(R) Xeon(R) Gold 5120 CPU @ 2.20GHz, instruction set [SSE2|AVX|AVX2|AVX512]
Thread count: 28 physical cores, 56 logical processors, using up to 28 threads

Academic license 2463511 - for non-commercial use only - registered to lu___@cefet-rj.br
Optimize a model with 24835 rows, 13713 columns and 58929 nonzeros
Model fingerprint: 0xae6f9e15
Variable types: 1 continuous, 13712 integer (13680 binary)
Coefficient statistics:
  Matrix range     [1e+00, 1e+05]
  Objective range  [3e-01, 8e-01]
  Bounds range     [1e+00, 3e+01]
  RHS range        [1e+00, 5e+01]
Presolve removed 21476 rows and 12274 columns
Presolve time: 0.28s
Presolved: 3359 rows, 1439 columns, 10983 nonzeros
Variable types: 0 continuous, 1439 integer (1408 binary)

Root relaxation: objective 9.907294e-01, 700 iterations, 0.02 seconds (0.02 work units)

    Nodes    |    Current Node    |     Objective Bounds      |     Work
 Expl Unexpl |  Obj  Depth IntInf | Incumbent    BestBd   Gap | It/Node Time

     0     0    0.99073    0   87          -    0.99073      -     -    0s
H    0     0                       1.8176730    0.99073  45.5%     -    0s
     0     0    1.06178    0  109    1.81767    1.06178  41.6%     -    0s
H    0     0                       1.0617820    1.06178  0.00%     -    0s

Cutting planes:
  Gomory: 2
  Implied bound: 9
  Clique: 1
  MIR: 32
  RLT: 3
  Relax-and-lift: 1

Explored 1 nodes (1845 simplex iterations) in 0.62 seconds (0.47 work units)
Thread count was 28 (of 56 available processors)

Solution count 2: 1.06178 1.81767 

Optimal solution found (tolerance 1.00e-04)
Best objective 1.061782000000e+00, best bound 1.061781928947e+00, gap 0.0000%

Solver Wallclock Time (for this epsilon): 0.617438793182373 s
Python wallclock Time (for this epsilon): 2.422645330429077 s


Total Elapsed Time (since program call): 49.87540125846863 s

Results:

I = 1.061782 mA
C = 52.0 points
C ~= 20.8 km^2

Minimum Epsilon for this instance = 10
Maximum Epsilon for this instance = 100

Current Epsilon = 50


Preprocessing Time (for this epsilon): 0.005191802978515625 s


Updated solution vectors:
sol_I = [-0.611782,-1.061782,-1.061782,-1.061782,-1.061782]
sol_C = [12.0,28.0,47.0,47.0,52.0]
sol_eps = [10,20,30,40,50]
sol_gap = [0.0,0.0,0.0,0.0,7.10526315561566e-08]
